data/instances/vrp_files/train_18.vrp
NAME : 18
COMMENT : Generated instance No. 18
TYPE : CVRP
DIMENSION : 21
EDGE_WEIGHT_TYPE : EUC_2D
CAPACITY : 30
NODE_COORD_SECTION
 1 89 417
 2 790 318
 3 625 885
 4 615 232
 5 24 870
 6 21 874
 7 528 939
 8 798 997
 9 350 767
 10 401 479
 11 627 873
 12 984 768
 13 417 421
 14 737 238
 15 110 354
 16 287 296
 17 233 42
 18 17 987
 19 427 384
 20 679 218
 21 949 786
DEMAND_SECTION
1 0
2 8
3 8
4 2
5 9
6 7
7 4
8 4
9 8
10 4
11 6
12 5
13 3
14 10
15 2
16 9
17 10
18 9
19 1
20 10
21 3
DEPOT_SECTION
 1
 -1
EOF